25
1 0 49
2 0 4
2 1 26
3 0 32
3 1 34
3 2 32
4 0 6
4 1 50
4 2 33
4 3 23
5 0 1
5 1 6
5 2 35
5 3 32
5 4 11
6 0 26
6 1 15
6 2 16
6 3 14
6 4 47
6 5 7
7 0 26
7 1 46
7 2 1
7 3 29
7 4 43
7 5 28
7 6 42
8 0 16
8 1 34
8 2 19
8 3 15
8 4 38
8 5 41
8 6 18
8 7 16
9 0 3
9 1 24
9 2 34
9 3 45
9 4 41
9 5 26
9 6 1
9 7 9
9 8 26
10 0 28
10 1 2
10 2 2
10 3 46
10 4 24
10 5 41
10 6 4
10 7 16
10 8 7
10 9 46
11 0 40
11 1 32
11 2 30
11 3 47
11 4 27
11 5 45
11 6 50
11 7 1
11 8 8
11 9 18
11 10 3
12 0 48
12 1 47
12 2 18
12 3 29
12 4 7
12 5 49
12 6 35
12 7 33
12 8 50
12 9 47
12 10 14
12 11 26
13 0 4
13 1 4
13 2 48
13 3 44
13 4 30
13 5 48
13 6 7
13 7 26
13 8 17
13 9 9
13 10 26
13 11 22
13 12 12
14 0 1
14 1 39
14 2 32
14 3 40
14 4 41
14 5 25
14 6 29
14 7 20
14 8 33
14 9 15
14 10 37
14 11 7
14 12 20
14 13 7
15 0 40
15 1 28
15 2 15
15 3 7
15 4 26
15 5 27
15 6 44
15 7 27
15 8 15
15 9 23
15 10 24
15 11 28
15 12 36
15 13 41
15 14 42
16 0 7
16 1 49
16 2 24
16 3 36
16 4 11
16 5 38
16 6 45
16 7 10
16 8 26
16 9 1
16 10 11
16 11 14
16 12 17
16 13 33
16 14 43
16 15 5
17 0 44
17 1 4
17 2 7
17 3 19
17 4 38
17 5 19
17 6 8
17 7 30
17 8 1
17 9 7
17 10 28
17 11 20
17 12 36
17 13 24
17 14 27
17 15 29
17 16 44
18 0 40
18 1 28
18 2 29
18 3 23
18 4 7
18 5 5
18 6 15
18 7 24
18 8 19
18 9 13
18 10 34
18 11 29
18 12 22
18 13 48
18 14 14
18 15 32
18 16 20
18 17 7
19 0 3
19 1 11
19 2 7
19 3 8
19 4 39
19 5 47
19 6 43
19 7 27
19 8 44
19 9 49
19 10 33
19 11 10
19 12 34
19 13 27
19 14 48
19 15 18
19 16 27
19 17 35
19 18 28
20 0 34
20 1 43
20 2 9
20 3 26
20 4 46
20 5 17
20 6 44
20 7 7
20 8 36
20 9 50
20 10 5
20 11 44
20 12 44
20 13 23
20 14 5
20 15 37
20 16 22
20 17 49
20 18 4
20 19 31
21 0 23
21 1 46
21 2 48
21 3 45
21 4 6
21 5 29
21 6 21
21 7 29
21 8 35
21 9 3
21 10 7
21 11 22
21 12 27
21 13 43
21 14 7
21 15 37
21 16 50
21 17 50
21 18 42
21 19 17
21 20 50
22 0 34
22 1 47
22 2 25
22 3 35
22 4 27
22 5 22
22 6 22
22 7 21
22 8 11
22 9 23
22 10 38
22 11 45
22 12 50
22 13 25
22 14 2
22 15 11
22 16 17
22 17 19
22 18 17
22 19 20
22 20 33
22 21 49
23 0 15
23 1 11
23 2 50
23 3 35
23 4 15
23 5 42
23 6 50
23 7 44
23 8 29
23 9 15
23 10 33
23 11 47
23 12 27
23 13 46
23 14 26
23 15 45
23 16 22
23 17 12
23 18 28
23 19 23
23 20 15
23 21 48
23 22 29
24 0 40
24 1 38
24 2 5
24 3 8
24 4 40
24 5 50
24 6 15
24 7 26
24 8 27
24 9 19
24 10 45
24 11 16
24 12 48
24 13 45
24 14 14
24 15 49
24 16 9
24 17 49
24 18 40
24 19 32
24 20 43
24 21 6
24 22 46
24 23 30
